NAME          ClpDefau
ROWS
 N  OBJROW
 L  R_220_0
 L  R_220_1
 L  R_220_2
 L  R_220_3
 L  R_220_4
 L  R_220_5
 L  R_220_6
 L  R_220_7
 L  R_220_8
 L  R_220_9
 L  R_220_10
 L  R_220_11
 L  R_220_12
 L  R_220_13
 L  R_220_14
 L  R_220_15
COLUMNS
    x_0       OBJROW     -1.           R_220_0   1.          
    x_0       R_220_1   3.             R_220_2   9.          
    x_0       R_220_3   9.             R_220_4   3.          
    x_0       R_220_6   7.             R_220_7   6.          
    x_0       R_220_8   6.             R_220_9   8.          
    x_0       R_220_10  7.             R_220_11  8.          
    x_0       R_220_12  4.             R_220_13  8.          
    x_0       R_220_14  6.             R_220_15  8.          
    x_1       OBJROW     -2.           R_220_1   10.         
    x_1       R_220_2   9.             R_220_3   8.          
    x_1       R_220_4   6.             R_220_8   8.          
    x_1       R_220_9   9.             R_220_10  9.          
    x_1       R_220_11  10.            R_220_12  4.          
    x_1       R_220_13  6.             R_220_15  2.          
    x_2       OBJROW     -2.           R_220_0   6.          
    x_2       R_220_1   4.             R_220_3   10.         
    x_2       R_220_4   5.             R_220_5   2.          
    x_2       R_220_6   3.             R_220_8   4.          
    x_2       R_220_10  1.             R_220_11  6.          
    x_2       R_220_12  1.             R_220_13  2.          
    x_2       R_220_14  1.             R_220_15  3.          
    x_3       OBJROW     -6.           R_220_1   3.          
    x_3       R_220_2   1.             R_220_3   1.          
    x_3       R_220_4   4.             R_220_5   1.          
    x_3       R_220_6   10.            R_220_7   2.          
    x_3       R_220_8   8.             R_220_9   8.          
    x_3       R_220_10  10.            R_220_11  5.          
    x_3       R_220_12  10.            R_220_13  8.          
    x_3       R_220_15  6.          
    x_4       OBJROW     -3.           R_220_1   3.          
    x_4       R_220_2   7.             R_220_3   6.          
    x_4       R_220_4   6.             R_220_5   10.         
    x_4       R_220_7   9.             R_220_9   5.          
    x_4       R_220_10  3.             R_220_11  8.          
    x_4       R_220_12  9.             R_220_14  1.          
    x_5       OBJROW     -5.           R_220_0   8.          
    x_5       R_220_1   2.             R_220_2   10.         
    x_5       R_220_3   10.            R_220_4   5.          
    x_5       R_220_5   5.             R_220_6   1.          
    x_5       R_220_7   7.             R_220_8   2.          
    x_5       R_220_9   2.             R_220_10  2.          
    x_5       R_220_11  4.             R_220_12  1.          
    x_5       R_220_13  8.             R_220_14  9.          
    x_5       R_220_15  4.          
    x_6       OBJROW     -5.           R_220_0   4.          
    x_6       R_220_1   7.             R_220_2   1.          
    x_6       R_220_3   1.             R_220_6   2.          
    x_6       R_220_7   8.             R_220_8   9.          
    x_6       R_220_10  6.             R_220_11  6.          
    x_6       R_220_12  7.             R_220_13  5.          
    x_6       R_220_14  1.          
    x_7       OBJROW     -10.          R_220_0   8.          
    x_7       R_220_1   10.            R_220_2   1.          
    x_7       R_220_3   6.             R_220_4   2.          
    x_7       R_220_5   8.             R_220_6   10.         
    x_7       R_220_7   8.             R_220_8   6.          
    x_7       R_220_9   2.             R_220_10  2.          
    x_7       R_220_11  6.             R_220_12  4.          
    x_7       R_220_13  1.             R_220_14  8.          
    x_7       R_220_15  8.          
    x_8       OBJROW     -4.           R_220_0   8.          
    x_8       R_220_1   6.             R_220_2   9.          
    x_8       R_220_4   7.             R_220_7   4.          
    x_8       R_220_8   10.            R_220_9   7.          
    x_8       R_220_10  2.             R_220_11  10.         
    x_8       R_220_12  6.             R_220_13  9.          
    x_8       R_220_14  7.          
    x_9       OBJROW     -10.          R_220_0   1.          
    x_9       R_220_1   5.             R_220_2   6.          
    x_9       R_220_3   9.             R_220_4   3.          
    x_9       R_220_5   7.             R_220_6   9.          
    x_9       R_220_7   9.             R_220_8   3.          
    x_9       R_220_9   4.             R_220_10  6.          
    x_9       R_220_11  10.            R_220_12  8.          
    x_9       R_220_13  1.             R_220_15  3.          
    x_10      OBJROW     -1.           R_220_0   1.          
    x_10      R_220_1   7.             R_220_2   7.          
    x_10      R_220_3   8.             R_220_4   9.          
    x_10      R_220_5   2.             R_220_6   4.          
    x_10      R_220_7   4.             R_220_8   7.          
    x_10      R_220_10  1.             R_220_11  9.          
    x_10      R_220_12  8.             R_220_13  2.          
    x_10      R_220_14  4.             R_220_15  10.         
    x_11      OBJROW     -10.          R_220_0   4.          
    x_11      R_220_2   9.             R_220_3   4.          
    x_11      R_220_4   10.            R_220_5   8.          
    x_11      R_220_7   10.            R_220_8   8.          
    x_11      R_220_9   10.            R_220_10  4.          
    x_11      R_220_12  6.             R_220_13  8.          
    x_11      R_220_14  2.             R_220_15  8.          
    x_12      OBJROW     -3.           R_220_2   9.          
    x_12      R_220_3   2.             R_220_4   6.          
    x_12      R_220_5   7.             R_220_6   3.          
    x_12      R_220_7   8.             R_220_8   8.          
    x_12      R_220_9   3.             R_220_10  9.          
    x_12      R_220_11  1.             R_220_12  9.          
    x_12      R_220_14  4.          
    x_13      OBJROW     -7.           R_220_0   3.          
    x_13      R_220_1   9.             R_220_2   5.          
    x_13      R_220_3   6.             R_220_4   5.          
    x_13      R_220_5   7.             R_220_6   2.          
    x_13      R_220_7   4.             R_220_8   9.          
    x_13      R_220_10  9.             R_220_11  5.          
    x_13      R_220_12  8.             R_220_13  9.          
    x_13      R_220_14  2.             R_220_15  7.          
    x_14      OBJROW     -7.           R_220_1   6.          
    x_14      R_220_2   8.             R_220_3   8.          
    x_14      R_220_4   5.             R_220_5   3.          
    x_14      R_220_7   4.             R_220_9   2.          
    x_14      R_220_11  6.             R_220_12  3.          
    x_14      R_220_13  4.             R_220_14  9.          
    x_14      R_220_15  7.          
    x_15      OBJROW     -9.           R_220_1   5.          
    x_15      R_220_4   6.             R_220_5   5.          
    x_15      R_220_6   2.             R_220_7   7.          
    x_15      R_220_8   5.             R_220_10  8.          
    x_15      R_220_11  3.             R_220_12  7.          
    x_15      R_220_13  1.             R_220_14  3.          
    x_15      R_220_15  7.          
    x_16      OBJROW     -6.           R_220_0   6.          
    x_16      R_220_1   10.            R_220_2   5.          
    x_16      R_220_3   3.             R_220_4   4.          
    x_16      R_220_6   3.             R_220_7   6.          
    x_16      R_220_8   7.             R_220_9   2.          
    x_16      R_220_10  4.             R_220_11  10.         
    x_16      R_220_12  6.             R_220_13  10.         
    x_16      R_220_14  3.             R_220_15  2.          
    x_17      OBJROW     -9.           R_220_0   5.          
    x_17      R_220_1   9.             R_220_2   2.          
    x_17      R_220_3   10.            R_220_5   1.          
    x_17      R_220_6   8.             R_220_7   6.          
    x_17      R_220_8   10.            R_220_9   10.         
    x_17      R_220_10  8.             R_220_13  7.          
    x_17      R_220_14  8.             R_220_15  2.          
    x_18      OBJROW     -8.           R_220_0   10.         
    x_18      R_220_1   9.             R_220_3   5.          
    x_18      R_220_4   1.             R_220_5   6.          
    x_18      R_220_6   1.             R_220_7   2.          
    x_18      R_220_8   8.             R_220_9   8.          
    x_18      R_220_10  8.             R_220_11  1.          
    x_18      R_220_12  9.             R_220_13  1.          
    x_18      R_220_14  1.          
    x_19      OBJROW     -9.           R_220_0   9.          
    x_19      R_220_2   8.             R_220_3   9.          
    x_19      R_220_4   2.             R_220_5   1.          
    x_19      R_220_6   7.             R_220_7   7.          
    x_19      R_220_9   9.             R_220_10  3.          
    x_19      R_220_11  3.             R_220_12  4.          
    x_19      R_220_13  4.             R_220_14  7.          
    x_19      R_220_15  3.          
    x_20      OBJROW     -5.           R_220_0   5.          
    x_20      R_220_2   8.             R_220_3   9.          
    x_20      R_220_4   5.             R_220_5   3.          
    x_20      R_220_6   2.             R_220_7   9.          
    x_20      R_220_8   4.             R_220_9   10.         
    x_20      R_220_10  3.             R_220_11  5.          
    x_20      R_220_12  8.             R_220_13  4.          
    x_20      R_220_15  1.          
    x_21      OBJROW     -1.           R_220_0   2.          
    x_21      R_220_1   9.             R_220_3   2.          
    x_21      R_220_6   5.             R_220_8   6.          
    x_21      R_220_9   5.             R_220_11  2.          
    x_21      R_220_12  7.             R_220_13  1.          
    x_21      R_220_14  2.             R_220_15  5.          
    x_22      OBJROW     -1.           R_220_1   7.          
    x_22      R_220_2   9.             R_220_3   10.         
    x_22      R_220_4   4.             R_220_5   3.          
    x_22      R_220_6   8.             R_220_9   10.         
    x_22      R_220_10  4.             R_220_11  8.          
    x_22      R_220_12  8.             R_220_14  2.          
    x_22      R_220_15  10.         
    x_23      OBJROW     -6.           R_220_0   8.          
    x_23      R_220_1   10.            R_220_2   10.         
    x_23      R_220_4   5.             R_220_6   5.          
    x_23      R_220_7   1.             R_220_8   6.          
    x_23      R_220_9   9.             R_220_10  6.          
    x_23      R_220_12  8.             R_220_14  10.         
    x_23      R_220_15  4.          
    x_24      OBJROW     -8.           R_220_0   10.         
    x_24      R_220_1   2.             R_220_2   8.          
    x_24      R_220_4   8.             R_220_5   4.          
    x_24      R_220_6   5.             R_220_9   10.         
    x_24      R_220_10  6.             R_220_11  7.          
    x_24      R_220_12  4.             R_220_13  9.          
    x_24      R_220_14  4.             R_220_15  10.         
    x_25      OBJROW     -6.           R_220_0   7.          
    x_25      R_220_1   8.             R_220_2   8.          
    x_25      R_220_4   4.             R_220_5   9.          
    x_25      R_220_6   2.             R_220_7   9.          
    x_25      R_220_8   1.             R_220_9   7.          
    x_25      R_220_10  9.             R_220_11  6.          
    x_25      R_220_12  9.             R_220_14  2.          
    x_25      R_220_15  4.          
    x_26      OBJROW     -7.           R_220_0   1.          
    x_26      R_220_1   3.             R_220_2   4.          
    x_26      R_220_3   9.             R_220_4   3.          
    x_26      R_220_5   2.             R_220_6   9.          
    x_26      R_220_7   3.             R_220_8   3.          
    x_26      R_220_9   9.             R_220_10  8.          
    x_26      R_220_11  9.             R_220_12  6.          
    x_26      R_220_13  2.             R_220_14  2.          
    x_26      R_220_15  6.          
    x_27      OBJROW     -7.           R_220_0   5.          
    x_27      R_220_3   3.             R_220_4   6.          
    x_27      R_220_5   1.             R_220_6   9.          
    x_27      R_220_7   2.             R_220_8   9.          
    x_27      R_220_9   7.             R_220_10  4.          
    x_27      R_220_11  3.             R_220_12  1.          
    x_27      R_220_13  6.             R_220_14  5.          
    x_27      R_220_15  1.          
    x_28      OBJROW     -9.           R_220_1   4.          
    x_28      R_220_2   6.             R_220_3   10.         
    x_28      R_220_5   9.             R_220_6   1.          
    x_28      R_220_7   2.             R_220_8   5.          
    x_28      R_220_9   4.             R_220_10  9.          
    x_28      R_220_13  3.             R_220_14  3.          
    x_28      R_220_15  6.          
    x_29      OBJROW     -3.           R_220_0   10.         
    x_29      R_220_1   8.             R_220_3   8.          
    x_29      R_220_4   10.            R_220_7   5.          
    x_29      R_220_8   3.             R_220_9   10.         
    x_29      R_220_10  8.             R_220_11  4.          
    x_29      R_220_12  5.             R_220_13  6.          
    x_29      R_220_14  1.          
    x_30      OBJROW     -9.           R_220_0   1.          
    x_30      R_220_1   1.             R_220_3   10.         
    x_30      R_220_4   5.             R_220_5   8.          
    x_30      R_220_6   10.            R_220_7   4.          
    x_30      R_220_8   9.             R_220_9   5.          
    x_30      R_220_11  7.             R_220_12  4.          
    x_30      R_220_13  7.             R_220_14  10.         
    x_30      R_220_15  9.          
    x_31      OBJROW     -3.           R_220_0   7.          
    x_31      R_220_1   6.             R_220_3   3.          
    x_31      R_220_4   3.             R_220_5   8.          
    x_31      R_220_6   3.             R_220_7   6.          
    x_31      R_220_8   7.             R_220_9   5.          
    x_31      R_220_10  1.             R_220_11  1.          
    x_31      R_220_12  2.             R_220_13  6.          
    x_31      R_220_14  6.             R_220_15  3.          
RHS
    RHS       R_220_0   148.           R_220_1   133.        
    RHS       R_220_2   161.           R_220_3   166.        
    RHS       R_220_4   158.           R_220_5   153.        
    RHS       R_220_6   167.           R_220_7   143.        
    RHS       R_220_8   156.           R_220_9   134.        
    RHS       R_220_10  166.           R_220_11  129.        
    RHS       R_220_12  150.           R_220_13  129.        
    RHS       R_220_14  147.           R_220_15  159.        
BOUNDS
 UI BOUND     x_0       10.         
 UI BOUND     x_1       10.         
 UI BOUND     x_2       10.         
 UI BOUND     x_3       10.         
 UI BOUND     x_4       10.         
 UI BOUND     x_5       10.         
 UI BOUND     x_6       10.         
 UI BOUND     x_7       10.         
 UI BOUND     x_8       10.         
 UI BOUND     x_9       10.         
 UI BOUND     x_10      10.         
 UI BOUND     x_11      10.         
 UI BOUND     x_12      10.         
 UI BOUND     x_13      10.         
 UI BOUND     x_14      10.         
 UI BOUND     x_15      10.         
 UI BOUND     x_16      10.         
 UI BOUND     x_17      10.         
 UI BOUND     x_18      10.         
 UI BOUND     x_19      10.         
 UI BOUND     x_20      10.         
 UI BOUND     x_21      10.         
 UI BOUND     x_22      10.         
 UI BOUND     x_23      10.         
 UI BOUND     x_24      10.         
 UI BOUND     x_25      10.         
 UI BOUND     x_26      10.         
 UI BOUND     x_27      10.         
 UI BOUND     x_28      10.         
 UI BOUND     x_29      10.         
 UI BOUND     x_30      10.         
 UI BOUND     x_31      10.         
ENDATA
